--- Job Hw#3 gams.gms Start 09/20/20 16:55:10 32.2.0 rc62c018 WEX-WEI x86 64bit/MS Windows
--- Applying:
    C:\GAMS\32\gmsprmNT.txt
--- GAMS Parameters defined
    Input "C:\Users\oboem\Documents\GitHub\CEE-5410-Walker\Hw#3 gams.gms"
    PageSize 0
    ScrDir C:\Users\oboem\Documents\GitHub\CEE-5410-Walker\225a\
    SysDir C:\GAMS\32\
    LogOption 3
    ErrMsg 1
    ErrorLog 99
    IDE 1
    LstTitleLeftAligned 1
GAMS 32.2.0   Copyright (C) 1987-2020 GAMS Development. All rights reserved
Licensee: Small MUD - 5 User License                     G200622/0001AP-GEN
          Utah State University, Utah Water Research Laboratory      DC7087
          C:\GAMS\32\gamslice.txt
--- Starting compilation
--- Hw#3 gams.gms(32) 3 Mb
--- Starting execution: elapsed 0:00:00.013
--- Generating LP model Planting
--- Hw#3 gams.gms(31) 4 Mb
---   5 rows  3 columns  10 non-zeroes
--- Executing CPLEX (Solvelink=2): elapsed 0:00:00.066

IBM ILOG CPLEX   32.2.0 rc62c018 Released Aug 26, 2020 WEI x86 64bit/MS Window
--- GAMS/Cplex Link licensed for continuous and discrete problems.
Cplex 12.10.0.0

Reading data...
Starting Cplex...
Space for names approximately 0.00 Mb
Use option 'names no' to turn use of names off
Version identifier: 12.10.0.0 | 2019-11-26 | 843d4de2ae
CPXPARAM_Advance                                 0
CPXPARAM_Simplex_Display                         2
CPXPARAM_Threads                                 1
CPXPARAM_Parallel                                1
Tried aggregator 1 time.
LP Presolve eliminated 2 rows and 1 columns.
Reduced LP has 3 rows, 2 columns, and 6 nonzeros.
Presolve time = 0.00 sec. (0.00 ticks)

Iteration      Dual Objective            In Variable           Out Variable
     1  I            0.000000               X(Grain)Res_Constraint(Jl slack
     2         1213333.333333                 X(Hay)Res_Constraint(Jw slack
     3         1160000.000000Res_Constraint(Jw slackRes_Constraint(La slack
LP status(1): optimal
Cplex Time: 0.00sec (det. 0.01 ticks)

Optimal solution found.
Objective :     1160000.000000

--- Reading solution for model Planting
*** Status: Normal completion
--- Job Hw#3 gams.gms Stop 09/20/20 16:55:10 elapsed 0:00:00.191
